Instance Name : r209
Date : 2022-07-18
Solution
Route 1 : 28 76 12 29 39 67 23 41 22 75 72 73 21 40 53 6 94 87 57 15 43 42 97 13 58 26 77 68 80 24 54 55 25 4 56 74
Route 2 : 27 69 31 88 52 83 82 47 19 63 90 30 51 71 9 81 33 50 3 79 78 34 35 65 66 20 32 10 70 1
Route 3 : 2 95 92 98 59 99 5 61 16 44 14 38 86 85 18 7 62 11 64 49 36 46 8 45 17 84 91 100 37 93 96 60 48 89
